
Gurobi 13.0.0 (win64) logging started Tue Nov 25 17:35:19 2025

Set parameter LogFile to value "Question2/exercise_lec4/keypath_pmf/Keypath.log"
Gurobi Optimizer version 13.0.0 build v13.0.0rc1 (win64 - Windows 10.0 (19045.2))

CPU model: 11th Gen Intel(R) Core(TM) i5-1135G7 @ 2.40GHz, instruction set [SSE2|AVX|AVX2|AVX512]
Thread count: 4 physical cores, 8 logical processors, using up to 8 threads

Optimize a model with 25 rows, 17 columns and 53 nonzeros (Min)
Model fingerprint: 0x68f09c2d
Model has 17 linear objective coefficients
Variable types: 0 continuous, 17 integer (0 binary)
Coefficient statistics:
  Matrix range     [1e-01, 1e+00]
  Objective range  [6e+01, 2e+02]
  Bounds range     [0e+00, 0e+00]
  RHS range        [8e+00, 2e+02]
Found heuristic solution: objective 39583.500000
Presolve removed 12 rows and 2 columns
Presolve time: 0.01s
Presolved: 13 rows, 15 columns, 39 nonzeros
Variable types: 0 continuous, 15 integer (0 binary)
Found heuristic solution: objective 39191.500000

Root relaxation: objective 3.697700e+04, 10 iterations, 0.00 seconds (0.00 work units)

    Nodes    |    Current Node    |     Objective Bounds      |     Work
 Expl Unexpl |  Obj  Depth IntInf | Incumbent    BestBd   Gap | It/Node Time

     0     0 36977.0000    0    1 39191.5000 36977.0000  5.65%     -    0s
H    0     0                    37220.500000 36977.0000  0.65%     -    0s
H    0     0                    37007.000000 36977.0000  0.08%     -    0s
     0     0     cutoff    0      37007.0000 37007.0000  0.00%     -    0s

Cutting planes:
  MIR: 2

Explored 1 nodes (12 simplex iterations) in 0.06 seconds (0.00 work units)
Thread count was 8 (of 8 available processors)

Solution count 4: 37007 37220.5 39191.5 39583.5 

Optimal solution found (tolerance 1.00e-04)
Best objective 3.700700000000e+04, best bound 3.700700000000e+04, gap 0.0000%

Gurobi 13.0.0 (win64) logging started Tue Nov 25 17:36:31 2025

Set parameter LogFile to value "Question2/exercise_lec4/keypath_pmf/Keypath.log"
Gurobi Optimizer version 13.0.0 build v13.0.0rc1 (win64 - Windows 10.0 (19045.2))

CPU model: 11th Gen Intel(R) Core(TM) i5-1135G7 @ 2.40GHz, instruction set [SSE2|AVX|AVX2|AVX512]
Thread count: 4 physical cores, 8 logical processors, using up to 8 threads

Optimize a model with 25 rows, 17 columns and 53 nonzeros (Min)
Model fingerprint: 0x0e8cafbe
Model has 17 linear objective coefficients
Variable types: 0 continuous, 17 integer (0 binary)
Coefficient statistics:
  Matrix range     [1e-01, 1e+00]
  Objective range  [6e+01, 2e+02]
  Bounds range     [0e+00, 0e+00]
  RHS range        [8e+00, 2e+02]
Presolve removed 13 rows and 1 columns
Presolve time: 0.00s

Explored 0 nodes (0 simplex iterations) in 0.00 seconds (0.00 work units)
Thread count was 1 (of 8 available processors)

Solution count 0

Model is infeasible
Best objective -, best bound -, gap -

Gurobi 13.0.0 (win64) logging started Tue Nov 25 17:39:42 2025

Set parameter LogFile to value "Question2/exercise_lec4/keypath_pmf/Keypath.log"
Gurobi Optimizer version 13.0.0 build v13.0.0rc1 (win64 - Windows 10.0 (19045.2))

CPU model: 11th Gen Intel(R) Core(TM) i5-1135G7 @ 2.40GHz, instruction set [SSE2|AVX|AVX2|AVX512]
Thread count: 4 physical cores, 8 logical processors, using up to 8 threads

Optimize a model with 25 rows, 17 columns and 61 nonzeros (Min)
Model fingerprint: 0x304a45a4
Model has 17 linear objective coefficients
Variable types: 0 continuous, 17 integer (0 binary)
Coefficient statistics:
  Matrix range     [1e-01, 1e+00]
  Objective range  [6e+01, 2e+02]
  Bounds range     [0e+00, 0e+00]
  RHS range        [8e+00, 2e+02]
Found heuristic solution: objective 73758.000000
Presolve removed 12 rows and 1 columns
Presolve time: 0.00s
Presolved: 13 rows, 16 columns, 49 nonzeros
Variable types: 0 continuous, 16 integer (0 binary)

Root relaxation: objective 7.238000e+04, 11 iterations, 0.00 seconds (0.00 work units)

    Nodes    |    Current Node    |     Objective Bounds      |     Work
 Expl Unexpl |  Obj  Depth IntInf | Incumbent    BestBd   Gap | It/Node Time

     0     0 72380.0000    0    4 73758.0000 72380.0000  1.87%     -    0s
H    0     0                    72689.000000 72380.0000  0.43%     -    0s
H    0     0                    72629.000000 72380.0000  0.34%     -    0s
     0     0 72485.2222    0    4 72629.0000 72485.2222  0.20%     -    0s
H    0     0                    72586.000000 72485.2222  0.14%     -    0s
H    0     0                    72577.000000 72485.2222  0.13%     -    0s
H    0     0                    72515.000000 72485.2222  0.04%     -    0s
     0     0 72488.6000    0    3 72515.0000 72488.6000  0.04%     -    0s
     0     0 72493.4000    0    4 72515.0000 72493.4000  0.03%     -    0s
     0     0 72494.1765    0    5 72515.0000 72494.1765  0.03%     -    0s
     0     0 72500.0000    0    3 72515.0000 72500.0000  0.02%     -    0s
     0     0 72500.2941    0    4 72515.0000 72500.2941  0.02%     -    0s
     0     0 72507.8000    0    2 72515.0000 72507.8000  0.01%     -    0s

Cutting planes:
  Gomory: 2
  MIR: 4

Explored 1 nodes (24 simplex iterations) in 0.03 seconds (0.00 work units)
Thread count was 8 (of 8 available processors)

Solution count 6: 72515 72577 72586 ... 73758

Optimal solution found (tolerance 1.00e-04)
Best objective 7.251500000000e+04, best bound 7.250800000000e+04, gap 0.0097%
